<?xml version = "1.0" standalone="yes"?>
<!-- This file has been generated by DOcplex version 2.23.222  -->
<CPLEXSolution version="1.0">
 <header
   problemName="CVRP"
   objectiveValue="22069.2"
  />
 <variables>
  <variable name="x_0_1" index="0" value="1.00000"/>
  <variable name="x_0_2" index="1" value="1.00000"/>
  <variable name="x_0_3" index="2" value="1.00000"/>
  <variable name="x_0_4" index="3" value="1.00000"/>
  <variable name="x_0_6" index="5" value="1.00000"/>
  <variable name="x_0_7" index="6" value="1.00000"/>
  <variable name="x_0_8" index="7" value="1.00000"/>
  <variable name="x_0_9" index="8" value="1.00000"/>
  <variable name="x_0_10" index="9" value="1.00000"/>
  <variable name="x_0_11" index="10" value="1.00000"/>
  <variable name="x_0_12" index="11" value="1.00000"/>
  <variable name="x_0_13" index="12" value="1.00000"/>
  <variable name="x_0_15" index="14" value="1.00000"/>
  <variable name="x_0_16" index="15" value="1.00000"/>
  <variable name="x_0_17" index="16" value="1.00000"/>
  <variable name="x_0_18" index="17" value="1.00000"/>
  <variable name="x_0_19" index="18" value="1.00000"/>
  <variable name="x_0_20" index="19" value="1.00000"/>
  <variable name="x_0_22" index="21" value="1.00000"/>
  <variable name="x_0_23" index="22" value="1.00000"/>
  <variable name="x_0_25" index="24" value="1.00000"/>
  <variable name="x_0_27" index="26" value="1.00000"/>
  <variable name="x_1_26" index="52" value="1.00000"/>
  <variable name="x_2_0" index="54" value="1.00000"/>
  <variable name="x_3_0" index="81" value="1.00000"/>
  <variable name="x_4_0" index="108" value="1.00000"/>
  <variable name="x_5_0" index="135" value="1.00000"/>
  <variable name="x_6_0" index="162" value="1.00000"/>
  <variable name="x_7_0" index="189" value="1.00000"/>
  <variable name="x_8_21" index="236" value="1.00000"/>
  <variable name="x_9_0" index="243" value="1.00000"/>
  <variable name="x_10_0" index="270" value="1.00000"/>
  <variable name="x_11_0" index="297" value="1.00000"/>
  <variable name="x_12_14" index="337" value="1.00000"/>
  <variable name="x_13_0" index="351" value="1.00000"/>
  <variable name="x_14_0" index="378" value="1.00000"/>
  <variable name="x_15_0" index="405" value="1.00000"/>
  <variable name="x_16_24" index="455" value="1.00000"/>
  <variable name="x_17_5" index="464" value="1.00000"/>
  <variable name="x_18_0" index="486" value="1.00000"/>
  <variable name="x_19_0" index="513" value="1.00000"/>
  <variable name="x_20_0" index="540" value="1.00000"/>
  <variable name="x_21_0" index="567" value="1.00000"/>
  <variable name="x_22_0" index="594" value="1.00000"/>
  <variable name="x_23_0" index="621" value="1.00000"/>
  <variable name="x_24_0" index="648" value="1.00000"/>
  <variable name="x_25_0" index="675" value="1.00000"/>
  <variable name="x_26_0" index="702" value="1.00000"/>
  <variable name="x_27_0" index="729" value="1.00000"/>
  <variable name="u_1" index="756" value="7.00000"/>
  <variable name="u_2" index="757" value="33.00000"/>
  <variable name="u_3" index="758" value="22.00000"/>
  <variable name="u_4" index="759" value="42.00000"/>
  <variable name="u_5" index="760" value="36.00000"/>
  <variable name="u_6" index="761" value="27.00000"/>
  <variable name="u_7" index="762" value="38.00000"/>
  <variable name="u_8" index="763" value="20.00000"/>
  <variable name="u_9" index="764" value="42.00000"/>
  <variable name="u_10" index="765" value="34.00000"/>
  <variable name="u_11" index="766" value="27.00000"/>
  <variable name="u_12" index="767" value="25.00000"/>
  <variable name="u_13" index="768" value="36.00000"/>
  <variable name="u_14" index="769" value="38.00000"/>
  <variable name="u_15" index="770" value="42.00000"/>
  <variable name="u_16" index="771" value="16.00000"/>
  <variable name="u_17" index="772" value="15.00000"/>
  <variable name="u_18" index="773" value="26.00000"/>
  <variable name="u_19" index="774" value="41.00000"/>
  <variable name="u_20" index="775" value="40.00000"/>
  <variable name="u_21" index="776" value="42.00000"/>
  <variable name="u_22" index="777" value="40.00000"/>
  <variable name="u_23" index="778" value="22.00000"/>
  <variable name="u_24" index="779" value="39.00000"/>
  <variable name="u_25" index="780" value="36.00000"/>
  <variable name="u_26" index="781" value="41.00000"/>
  <variable name="u_27" index="782" value="22.00000"/>
 </variables>
</CPLEXSolution>
